p cnf 641 2175
c p weight -255 1 0
c p weight 255 -1 0
c p weight 259 6.12323399573676603586882014729198302312846062338790031898128063403419218957424163818359375E-17 0
c p weight -259 1 0
c p weight 260 1 0
c p weight -260 1 0
c p weight -257 1 0
c p weight 257 -1 0
c p weight -261 1 0
c p weight 261 -1 0
c p weight -263 1 0
c p weight 263 -1 0
c p weight -266 1 0
c p weight 266 -1 0
c p weight -269 1 0
c p weight 269 -1 0
c p weight -272 1 0
c p weight 272 -1 0
c p weight -275 1 0
c p weight 275 -1 0
c p weight -278 1 0
c p weight 278 -1 0
c p weight -281 1 0
c p weight 281 -1 0
c p weight -284 1 0
c p weight 284 -1 0
c p weight -287 1 0
c p weight 287 -1 0
c p weight -290 1 0
c p weight 290 -1 0
c p weight -293 1 0
c p weight 293 -1 0
c p weight -296 1 0
c p weight 296 -1 0
c p weight -299 1 0
c p weight 299 -1 0
c p weight -302 1 0
c p weight 302 -1 0
c p weight -305 1 0
c p weight 305 -1 0
c p weight -308 1 0
c p weight 308 -1 0
c p weight -311 1 0
c p weight 311 -1 0
c p weight -314 1 0
c p weight 314 -1 0
c p weight -317 1 0
c p weight 317 -1 0
c p weight -320 1 0
c p weight 320 -1 0
c p weight -323 1 0
c p weight 323 -1 0
c p weight -326 1 0
c p weight 326 -1 0
c p weight -329 1 0
c p weight 329 -1 0
c p weight -332 1 0
c p weight 332 -1 0
c p weight -335 1 0
c p weight 335 -1 0
c p weight -338 1 0
c p weight 338 -1 0
c p weight -341 1 0
c p weight 341 -1 0
c p weight -344 1 0
c p weight 344 -1 0
c p weight -347 1 0
c p weight 347 -1 0
c p weight -350 1 0
c p weight 350 -1 0
c p weight -353 1 0
c p weight 353 -1 0
c p weight -356 1 0
c p weight 356 -1 0
c p weight -359 1 0
c p weight 359 -1 0
c p weight -362 1 0
c p weight 362 -1 0
c p weight -365 1 0
c p weight 365 -1 0
c p weight -368 1 0
c p weight 368 -1 0
c p weight -371 1 0
c p weight 371 -1 0
c p weight -374 1 0
c p weight 374 -1 0
c p weight -377 1 0
c p weight 377 -1 0
c p weight -380 1 0
c p weight 380 -1 0
c p weight -383 1 0
c p weight 383 -1 0
c p weight -386 1 0
c p weight 386 -1 0
c p weight -389 1 0
c p weight 389 -1 0
c p weight -392 1 0
c p weight 392 -1 0
c p weight -395 1 0
c p weight 395 -1 0
c p weight -398 1 0
c p weight 398 -1 0
c p weight -401 1 0
c p weight 401 -1 0
c p weight -404 1 0
c p weight 404 -1 0
c p weight -407 1 0
c p weight 407 -1 0
c p weight -410 1 0
c p weight 410 -1 0
c p weight -413 1 0
c p weight 413 -1 0
c p weight -416 1 0
c p weight 416 -1 0
c p weight -419 1 0
c p weight 419 -1 0
c p weight -422 1 0
c p weight 422 -1 0
c p weight -425 1 0
c p weight 425 -1 0
c p weight -428 1 0
c p weight 428 -1 0
c p weight -431 1 0
c p weight 431 -1 0
c p weight -434 1 0
c p weight 434 -1 0
c p weight -437 1 0
c p weight 437 -1 0
c p weight -440 1 0
c p weight 440 -1 0
c p weight -443 1 0
c p weight 443 -1 0
c p weight -446 1 0
c p weight 446 -1 0
c p weight -449 1 0
c p weight 449 -1 0
c p weight -452 1 0
c p weight 452 -1 0
c p weight -455 1 0
c p weight 455 -1 0
c p weight -458 1 0
c p weight 458 -1 0
c p weight -461 1 0
c p weight 461 -1 0
c p weight -464 1 0
c p weight 464 -1 0
c p weight -467 1 0
c p weight 467 -1 0
c p weight -470 1 0
c p weight 470 -1 0
c p weight -473 1 0
c p weight 473 -1 0
c p weight -476 1 0
c p weight 476 -1 0
c p weight -479 1 0
c p weight 479 -1 0
c p weight -482 1 0
c p weight 482 -1 0
c p weight -485 1 0
c p weight 485 -1 0
c p weight -488 1 0
c p weight 488 -1 0
c p weight -491 1 0
c p weight 491 -1 0
c p weight -494 1 0
c p weight 494 -1 0
c p weight -497 1 0
c p weight 497 -1 0
c p weight -500 1 0
c p weight 500 -1 0
c p weight -503 1 0
c p weight 503 -1 0
c p weight -506 1 0
c p weight 506 -1 0
c p weight -509 1 0
c p weight 509 -1 0
c p weight -512 1 0
c p weight 512 -1 0
c p weight -515 1 0
c p weight 515 -1 0
c p weight -518 1 0
c p weight 518 -1 0
c p weight -521 1 0
c p weight 521 -1 0
c p weight -524 1 0
c p weight 524 -1 0
c p weight -527 1 0
c p weight 527 -1 0
c p weight -530 1 0
c p weight 530 -1 0
c p weight -533 1 0
c p weight 533 -1 0
c p weight -536 1 0
c p weight 536 -1 0
c p weight -539 1 0
c p weight 539 -1 0
c p weight -542 1 0
c p weight 542 -1 0
c p weight -545 1 0
c p weight 545 -1 0
c p weight -548 1 0
c p weight 548 -1 0
c p weight -551 1 0
c p weight 551 -1 0
c p weight -554 1 0
c p weight 554 -1 0
c p weight -557 1 0
c p weight 557 -1 0
c p weight -560 1 0
c p weight 560 -1 0
c p weight -563 1 0
c p weight 563 -1 0
c p weight -566 1 0
c p weight 566 -1 0
c p weight -569 1 0
c p weight 569 -1 0
c p weight -572 1 0
c p weight 572 -1 0
c p weight -575 1 0
c p weight 575 -1 0
c p weight -578 1 0
c p weight 578 -1 0
c p weight -581 1 0
c p weight 581 -1 0
c p weight -584 1 0
c p weight 584 -1 0
c p weight -587 1 0
c p weight 587 -1 0
c p weight -590 1 0
c p weight 590 -1 0
c p weight -593 1 0
c p weight 593 -1 0
c p weight -596 1 0
c p weight 596 -1 0
c p weight -599 1 0
c p weight 599 -1 0
c p weight -602 1 0
c p weight 602 -1 0
c p weight -605 1 0
c p weight 605 -1 0
c p weight -608 1 0
c p weight 608 -1 0
c p weight -611 1 0
c p weight 611 -1 0
c p weight -614 1 0
c p weight 614 -1 0
c p weight -617 1 0
c p weight 617 -1 0
c p weight -620 1 0
c p weight 620 -1 0
c p weight -623 1 0
c p weight 623 -1 0
c p weight -626 1 0
c p weight 626 -1 0
c p weight -629 1 0
c p weight 629 -1 0
c p weight -632 1 0
c p weight 632 -1 0
c p weight -635 1 0
c p weight 635 -1 0
c p weight -638 1 0
c p weight 638 -1 0
c p weight 641 0.5 0
c p weight -641 1 0
641 0
-253 0
-251 0
-249 0
-247 0
-245 0
-243 0
-241 0
-239 0
-237 0
-235 0
-233 0
-231 0
-229 0
-227 0
-225 0
-223 0
-221 0
-219 0
-217 0
-215 0
-213 0
-211 0
-209 0
-207 0
-205 0
-203 0
-201 0
-199 0
-197 0
-195 0
-193 0
-191 0
-189 0
-187 0
-185 0
-183 0
-181 0
-179 0
-177 0
-175 0
-173 0
-171 0
-169 0
-167 0
-165 0
-163 0
-161 0
-159 0
-157 0
-155 0
-153 0
-151 0
-149 0
-147 0
-145 0
-143 0
-141 0
-139 0
-137 0
-135 0
-133 0
-131 0
-129 0
-127 0
-125 0
-123 0
-121 0
-119 0
-117 0
-115 0
-113 0
-111 0
-109 0
-107 0
-105 0
-103 0
-101 0
-99 0
-97 0
-95 0
-93 0
-91 0
-89 0
-87 0
-85 0
-83 0
-81 0
-79 0
-77 0
-75 0
-73 0
-71 0
-69 0
-67 0
-65 0
-63 0
-61 0
-59 0
-57 0
-55 0
-53 0
-51 0
-49 0
-47 0
-45 0
-43 0
-41 0
-39 0
-37 0
-35 0
-33 0
-31 0
-29 0
-27 0
-25 0
-23 0
-21 0
-19 0
-17 0
-15 0
-13 0
-11 0
-9 0
-7 0
-5 0
-3 0
-1 0
-255 253 0
-255 254 0
255 -253 -254 0
256 253 -254 0
256 -253 254 0
-256 253 254 0
-256 -253 -254 0
-257 258 0
-257 256 0
-257 -253 0
257 -258 253 -256 0
258 -253 256 0
-258 253 256 0
-259 256 0
258 -259 -253 0
-258 -259 253 0
258 259 253 -256 0
-258 259 -253 -256 0
-260 256 0
258 -260 253 0
-258 -260 -253 0
258 260 -253 -256 0
-258 260 253 -256 0
-261 258 0
-261 256 0
261 -258 -256 0
262 258 -256 0
262 -258 256 0
-262 258 256 0
-262 -258 -256 0
-263 258 0
-263 252 0
-263 251 -262 0
-263 -251 262 0
263 -258 251 262 -252 0
263 -258 -251 -262 -252 0
265 258 -251 0
265 -258 251 0
-265 258 251 0
-265 -258 -251 0
264 262 -252 0
264 -262 252 0
-264 262 252 0
-264 -262 -252 0
-266 265 0
-266 250 0
-266 249 -252 0
-266 -249 252 0
266 -265 249 252 -250 0
266 -265 -249 -252 -250 0
268 265 -249 0
268 -265 249 0
-268 265 249 0
-268 -265 -249 0
267 252 -250 0
267 -252 250 0
-267 252 250 0
-267 -252 -250 0
-269 268 0
-269 248 0
-269 247 -250 0
-269 -247 250 0
269 -268 247 250 -248 0
269 -268 -247 -250 -248 0
271 268 -247 0
271 -268 247 0
-271 268 247 0
-271 -268 -247 0
270 250 -248 0
270 -250 248 0
-270 250 248 0
-270 -250 -248 0
-272 271 0
-272 246 0
-272 245 -248 0
-272 -245 248 0
272 -271 245 248 -246 0
272 -271 -245 -248 -246 0
274 271 -245 0
274 -271 245 0
-274 271 245 0
-274 -271 -245 0
273 248 -246 0
273 -248 246 0
-273 248 246 0
-273 -248 -246 0
-275 274 0
-275 244 0
-275 243 -246 0
-275 -243 246 0
275 -274 243 246 -244 0
275 -274 -243 -246 -244 0
277 274 -243 0
277 -274 243 0
-277 274 243 0
-277 -274 -243 0
276 246 -244 0
276 -246 244 0
-276 246 244 0
-276 -246 -244 0
-278 277 0
-278 242 0
-278 241 -244 0
-278 -241 244 0
278 -277 241 244 -242 0
278 -277 -241 -244 -242 0
280 277 -241 0
280 -277 241 0
-280 277 241 0
-280 -277 -241 0
279 244 -242 0
279 -244 242 0
-279 244 242 0
-279 -244 -242 0
-281 280 0
-281 240 0
-281 239 -242 0
-281 -239 242 0
281 -280 239 242 -240 0
281 -280 -239 -242 -240 0
283 280 -239 0
283 -280 239 0
-283 280 239 0
-283 -280 -239 0
282 242 -240 0
282 -242 240 0
-282 242 240 0
-282 -242 -240 0
-284 283 0
-284 238 0
-284 237 -240 0
-284 -237 240 0
284 -283 237 240 -238 0
284 -283 -237 -240 -238 0
286 283 -237 0
286 -283 237 0
-286 283 237 0
-286 -283 -237 0
285 240 -238 0
285 -240 238 0
-285 240 238 0
-285 -240 -238 0
-287 286 0
-287 236 0
-287 235 -238 0
-287 -235 238 0
287 -286 235 238 -236 0
287 -286 -235 -238 -236 0
289 286 -235 0
289 -286 235 0
-289 286 235 0
-289 -286 -235 0
288 238 -236 0
288 -238 236 0
-288 238 236 0
-288 -238 -236 0
-290 289 0
-290 234 0
-290 233 -236 0
-290 -233 236 0
290 -289 233 236 -234 0
290 -289 -233 -236 -234 0
292 289 -233 0
292 -289 233 0
-292 289 233 0
-292 -289 -233 0
291 236 -234 0
291 -236 234 0
-291 236 234 0
-291 -236 -234 0
-293 292 0
-293 232 0
-293 231 -234 0
-293 -231 234 0
293 -292 231 234 -232 0
293 -292 -231 -234 -232 0
295 292 -231 0
295 -292 231 0
-295 292 231 0
-295 -292 -231 0
294 234 -232 0
294 -234 232 0
-294 234 232 0
-294 -234 -232 0
-296 295 0
-296 230 0
-296 229 -232 0
-296 -229 232 0
296 -295 229 232 -230 0
296 -295 -229 -232 -230 0
298 295 -229 0
298 -295 229 0
-298 295 229 0
-298 -295 -229 0
297 232 -230 0
297 -232 230 0
-297 232 230 0
-297 -232 -230 0
-299 298 0
-299 228 0
-299 227 -230 0
-299 -227 230 0
299 -298 227 230 -228 0
299 -298 -227 -230 -228 0
301 298 -227 0
301 -298 227 0
-301 298 227 0
-301 -298 -227 0
300 230 -228 0
300 -230 228 0
-300 230 228 0
-300 -230 -228 0
-302 301 0
-302 226 0
-302 225 -228 0
-302 -225 228 0
302 -301 225 228 -226 0
302 -301 -225 -228 -226 0
304 301 -225 0
304 -301 225 0
-304 301 225 0
-304 -301 -225 0
303 228 -226 0
303 -228 226 0
-303 228 226 0
-303 -228 -226 0
-305 304 0
-305 224 0
-305 223 -226 0
-305 -223 226 0
305 -304 223 226 -224 0
305 -304 -223 -226 -224 0
307 304 -223 0
307 -304 223 0
-307 304 223 0
-307 -304 -223 0
306 226 -224 0
306 -226 224 0
-306 226 224 0
-306 -226 -224 0
-308 307 0
-308 222 0
-308 221 -224 0
-308 -221 224 0
308 -307 221 224 -222 0
308 -307 -221 -224 -222 0
310 307 -221 0
310 -307 221 0
-310 307 221 0
-310 -307 -221 0
309 224 -222 0
309 -224 222 0
-309 224 222 0
-309 -224 -222 0
-311 310 0
-311 220 0
-311 219 -222 0
-311 -219 222 0
311 -310 219 222 -220 0
311 -310 -219 -222 -220 0
313 310 -219 0
313 -310 219 0
-313 310 219 0
-313 -310 -219 0
312 222 -220 0
312 -222 220 0
-312 222 220 0
-312 -222 -220 0
-314 313 0
-314 218 0
-314 217 -220 0
-314 -217 220 0
314 -313 217 220 -218 0
314 -313 -217 -220 -218 0
316 313 -217 0
316 -313 217 0
-316 313 217 0
-316 -313 -217 0
315 220 -218 0
315 -220 218 0
-315 220 218 0
-315 -220 -218 0
-317 316 0
-317 216 0
-317 215 -218 0
-317 -215 218 0
317 -316 215 218 -216 0
317 -316 -215 -218 -216 0
319 316 -215 0
319 -316 215 0
-319 316 215 0
-319 -316 -215 0
318 218 -216 0
318 -218 216 0
-318 218 216 0
-318 -218 -216 0
-320 319 0
-320 214 0
-320 213 -216 0
-320 -213 216 0
320 -319 213 216 -214 0
320 -319 -213 -216 -214 0
322 319 -213 0
322 -319 213 0
-322 319 213 0
-322 -319 -213 0
321 216 -214 0
321 -216 214 0
-321 216 214 0
-321 -216 -214 0
-323 322 0
-323 212 0
-323 211 -214 0
-323 -211 214 0
323 -322 211 214 -212 0
323 -322 -211 -214 -212 0
325 322 -211 0
325 -322 211 0
-325 322 211 0
-325 -322 -211 0
324 214 -212 0
324 -214 212 0
-324 214 212 0
-324 -214 -212 0
-326 325 0
-326 210 0
-326 209 -212 0
-326 -209 212 0
326 -325 209 212 -210 0
326 -325 -209 -212 -210 0
328 325 -209 0
328 -325 209 0
-328 325 209 0
-328 -325 -209 0
327 212 -210 0
327 -212 210 0
-327 212 210 0
-327 -212 -210 0
-329 328 0
-329 208 0
-329 207 -210 0
-329 -207 210 0
329 -328 207 210 -208 0
329 -328 -207 -210 -208 0
331 328 -207 0
331 -328 207 0
-331 328 207 0
-331 -328 -207 0
330 210 -208 0
330 -210 208 0
-330 210 208 0
-330 -210 -208 0
-332 331 0
-332 206 0
-332 205 -208 0
-332 -205 208 0
332 -331 205 208 -206 0
332 -331 -205 -208 -206 0
334 331 -205 0
334 -331 205 0
-334 331 205 0
-334 -331 -205 0
333 208 -206 0
333 -208 206 0
-333 208 206 0
-333 -208 -206 0
-335 334 0
-335 204 0
-335 203 -206 0
-335 -203 206 0
335 -334 203 206 -204 0
335 -334 -203 -206 -204 0
337 334 -203 0
337 -334 203 0
-337 334 203 0
-337 -334 -203 0
336 206 -204 0
336 -206 204 0
-336 206 204 0
-336 -206 -204 0
-338 337 0
-338 202 0
-338 201 -204 0
-338 -201 204 0
338 -337 201 204 -202 0
338 -337 -201 -204 -202 0
340 337 -201 0
340 -337 201 0
-340 337 201 0
-340 -337 -201 0
339 204 -202 0
339 -204 202 0
-339 204 202 0
-339 -204 -202 0
-341 340 0
-341 200 0
-341 199 -202 0
-341 -199 202 0
341 -340 199 202 -200 0
341 -340 -199 -202 -200 0
343 340 -199 0
343 -340 199 0
-343 340 199 0
-343 -340 -199 0
342 202 -200 0
342 -202 200 0
-342 202 200 0
-342 -202 -200 0
-344 343 0
-344 198 0
-344 197 -200 0
-344 -197 200 0
344 -343 197 200 -198 0
344 -343 -197 -200 -198 0
346 343 -197 0
346 -343 197 0
-346 343 197 0
-346 -343 -197 0
345 200 -198 0
345 -200 198 0
-345 200 198 0
-345 -200 -198 0
-347 346 0
-347 196 0
-347 195 -198 0
-347 -195 198 0
347 -346 195 198 -196 0
347 -346 -195 -198 -196 0
349 346 -195 0
349 -346 195 0
-349 346 195 0
-349 -346 -195 0
348 198 -196 0
348 -198 196 0
-348 198 196 0
-348 -198 -196 0
-350 349 0
-350 194 0
-350 193 -196 0
-350 -193 196 0
350 -349 193 196 -194 0
350 -349 -193 -196 -194 0
352 349 -193 0
352 -349 193 0
-352 349 193 0
-352 -349 -193 0
351 196 -194 0
351 -196 194 0
-351 196 194 0
-351 -196 -194 0
-353 352 0
-353 192 0
-353 191 -194 0
-353 -191 194 0
353 -352 191 194 -192 0
353 -352 -191 -194 -192 0
355 352 -191 0
355 -352 191 0
-355 352 191 0
-355 -352 -191 0
354 194 -192 0
354 -194 192 0
-354 194 192 0
-354 -194 -192 0
-356 355 0
-356 190 0
-356 189 -192 0
-356 -189 192 0
356 -355 189 192 -190 0
356 -355 -189 -192 -190 0
358 355 -189 0
358 -355 189 0
-358 355 189 0
-358 -355 -189 0
357 192 -190 0
357 -192 190 0
-357 192 190 0
-357 -192 -190 0
-359 358 0
-359 188 0
-359 187 -190 0
-359 -187 190 0
359 -358 187 190 -188 0
359 -358 -187 -190 -188 0
361 358 -187 0
361 -358 187 0
-361 358 187 0
-361 -358 -187 0
360 190 -188 0
360 -190 188 0
-360 190 188 0
-360 -190 -188 0
-362 361 0
-362 186 0
-362 185 -188 0
-362 -185 188 0
362 -361 185 188 -186 0
362 -361 -185 -188 -186 0
364 361 -185 0
364 -361 185 0
-364 361 185 0
-364 -361 -185 0
363 188 -186 0
363 -188 186 0
-363 188 186 0
-363 -188 -186 0
-365 364 0
-365 184 0
-365 183 -186 0
-365 -183 186 0
365 -364 183 186 -184 0
365 -364 -183 -186 -184 0
367 364 -183 0
367 -364 183 0
-367 364 183 0
-367 -364 -183 0
366 186 -184 0
366 -186 184 0
-366 186 184 0
-366 -186 -184 0
-368 367 0
-368 182 0
-368 181 -184 0
-368 -181 184 0
368 -367 181 184 -182 0
368 -367 -181 -184 -182 0
370 367 -181 0
370 -367 181 0
-370 367 181 0
-370 -367 -181 0
369 184 -182 0
369 -184 182 0
-369 184 182 0
-369 -184 -182 0
-371 370 0
-371 180 0
-371 179 -182 0
-371 -179 182 0
371 -370 179 182 -180 0
371 -370 -179 -182 -180 0
373 370 -179 0
373 -370 179 0
-373 370 179 0
-373 -370 -179 0
372 182 -180 0
372 -182 180 0
-372 182 180 0
-372 -182 -180 0
-374 373 0
-374 178 0
-374 177 -180 0
-374 -177 180 0
374 -373 177 180 -178 0
374 -373 -177 -180 -178 0
376 373 -177 0
376 -373 177 0
-376 373 177 0
-376 -373 -177 0
375 180 -178 0
375 -180 178 0
-375 180 178 0
-375 -180 -178 0
-377 376 0
-377 176 0
-377 175 -178 0
-377 -175 178 0
377 -376 175 178 -176 0
377 -376 -175 -178 -176 0
379 376 -175 0
379 -376 175 0
-379 376 175 0
-379 -376 -175 0
378 178 -176 0
378 -178 176 0
-378 178 176 0
-378 -178 -176 0
-380 379 0
-380 174 0
-380 173 -176 0
-380 -173 176 0
380 -379 173 176 -174 0
380 -379 -173 -176 -174 0
382 379 -173 0
382 -379 173 0
-382 379 173 0
-382 -379 -173 0
381 176 -174 0
381 -176 174 0
-381 176 174 0
-381 -176 -174 0
-383 382 0
-383 172 0
-383 171 -174 0
-383 -171 174 0
383 -382 171 174 -172 0
383 -382 -171 -174 -172 0
385 382 -171 0
385 -382 171 0
-385 382 171 0
-385 -382 -171 0
384 174 -172 0
384 -174 172 0
-384 174 172 0
-384 -174 -172 0
-386 385 0
-386 170 0
-386 169 -172 0
-386 -169 172 0
386 -385 169 172 -170 0
386 -385 -169 -172 -170 0
388 385 -169 0
388 -385 169 0
-388 385 169 0
-388 -385 -169 0
387 172 -170 0
387 -172 170 0
-387 172 170 0
-387 -172 -170 0
-389 388 0
-389 168 0
-389 167 -170 0
-389 -167 170 0
389 -388 167 170 -168 0
389 -388 -167 -170 -168 0
391 388 -167 0
391 -388 167 0
-391 388 167 0
-391 -388 -167 0
390 170 -168 0
390 -170 168 0
-390 170 168 0
-390 -170 -168 0
-392 391 0
-392 166 0
-392 165 -168 0
-392 -165 168 0
392 -391 165 168 -166 0
392 -391 -165 -168 -166 0
394 391 -165 0
394 -391 165 0
-394 391 165 0
-394 -391 -165 0
393 168 -166 0
393 -168 166 0
-393 168 166 0
-393 -168 -166 0
-395 394 0
-395 164 0
-395 163 -166 0
-395 -163 166 0
395 -394 163 166 -164 0
395 -394 -163 -166 -164 0
397 394 -163 0
397 -394 163 0
-397 394 163 0
-397 -394 -163 0
396 166 -164 0
396 -166 164 0
-396 166 164 0
-396 -166 -164 0
-398 397 0
-398 162 0
-398 161 -164 0
-398 -161 164 0
398 -397 161 164 -162 0
398 -397 -161 -164 -162 0
400 397 -161 0
400 -397 161 0
-400 397 161 0
-400 -397 -161 0
399 164 -162 0
399 -164 162 0
-399 164 162 0
-399 -164 -162 0
-401 400 0
-401 160 0
-401 159 -162 0
-401 -159 162 0
401 -400 159 162 -160 0
401 -400 -159 -162 -160 0
403 400 -159 0
403 -400 159 0
-403 400 159 0
-403 -400 -159 0
402 162 -160 0
402 -162 160 0
-402 162 160 0
-402 -162 -160 0
-404 403 0
-404 158 0
-404 157 -160 0
-404 -157 160 0
404 -403 157 160 -158 0
404 -403 -157 -160 -158 0
406 403 -157 0
406 -403 157 0
-406 403 157 0
-406 -403 -157 0
405 160 -158 0
405 -160 158 0
-405 160 158 0
-405 -160 -158 0
-407 406 0
-407 156 0
-407 155 -158 0
-407 -155 158 0
407 -406 155 158 -156 0
407 -406 -155 -158 -156 0
409 406 -155 0
409 -406 155 0
-409 406 155 0
-409 -406 -155 0
408 158 -156 0
408 -158 156 0
-408 158 156 0
-408 -158 -156 0
-410 409 0
-410 154 0
-410 153 -156 0
-410 -153 156 0
410 -409 153 156 -154 0
410 -409 -153 -156 -154 0
412 409 -153 0
412 -409 153 0
-412 409 153 0
-412 -409 -153 0
411 156 -154 0
411 -156 154 0
-411 156 154 0
-411 -156 -154 0
-413 412 0
-413 152 0
-413 151 -154 0
-413 -151 154 0
413 -412 151 154 -152 0
413 -412 -151 -154 -152 0
415 412 -151 0
415 -412 151 0
-415 412 151 0
-415 -412 -151 0
414 154 -152 0
414 -154 152 0
-414 154 152 0
-414 -154 -152 0
-416 415 0
-416 150 0
-416 149 -152 0
-416 -149 152 0
416 -415 149 152 -150 0
416 -415 -149 -152 -150 0
418 415 -149 0
418 -415 149 0
-418 415 149 0
-418 -415 -149 0
417 152 -150 0
417 -152 150 0
-417 152 150 0
-417 -152 -150 0
-419 418 0
-419 148 0
-419 147 -150 0
-419 -147 150 0
419 -418 147 150 -148 0
419 -418 -147 -150 -148 0
421 418 -147 0
421 -418 147 0
-421 418 147 0
-421 -418 -147 0
420 150 -148 0
420 -150 148 0
-420 150 148 0
-420 -150 -148 0
-422 421 0
-422 146 0
-422 145 -148 0
-422 -145 148 0
422 -421 145 148 -146 0
422 -421 -145 -148 -146 0
424 421 -145 0
424 -421 145 0
-424 421 145 0
-424 -421 -145 0
423 148 -146 0
423 -148 146 0
-423 148 146 0
-423 -148 -146 0
-425 424 0
-425 144 0
-425 143 -146 0
-425 -143 146 0
425 -424 143 146 -144 0
425 -424 -143 -146 -144 0
427 424 -143 0
427 -424 143 0
-427 424 143 0
-427 -424 -143 0
426 146 -144 0
426 -146 144 0
-426 146 144 0
-426 -146 -144 0
-428 427 0
-428 142 0
-428 141 -144 0
-428 -141 144 0
428 -427 141 144 -142 0
428 -427 -141 -144 -142 0
430 427 -141 0
430 -427 141 0
-430 427 141 0
-430 -427 -141 0
429 144 -142 0
429 -144 142 0
-429 144 142 0
-429 -144 -142 0
-431 430 0
-431 140 0
-431 139 -142 0
-431 -139 142 0
431 -430 139 142 -140 0
431 -430 -139 -142 -140 0
433 430 -139 0
433 -430 139 0
-433 430 139 0
-433 -430 -139 0
432 142 -140 0
432 -142 140 0
-432 142 140 0
-432 -142 -140 0
-434 433 0
-434 138 0
-434 137 -140 0
-434 -137 140 0
434 -433 137 140 -138 0
434 -433 -137 -140 -138 0
436 433 -137 0
436 -433 137 0
-436 433 137 0
-436 -433 -137 0
435 140 -138 0
435 -140 138 0
-435 140 138 0
-435 -140 -138 0
-437 436 0
-437 136 0
-437 135 -138 0
-437 -135 138 0
437 -436 135 138 -136 0
437 -436 -135 -138 -136 0
439 436 -135 0
439 -436 135 0
-439 436 135 0
-439 -436 -135 0
438 138 -136 0
438 -138 136 0
-438 138 136 0
-438 -138 -136 0
-440 439 0
-440 134 0
-440 133 -136 0
-440 -133 136 0
440 -439 133 136 -134 0
440 -439 -133 -136 -134 0
442 439 -133 0
442 -439 133 0
-442 439 133 0
-442 -439 -133 0
441 136 -134 0
441 -136 134 0
-441 136 134 0
-441 -136 -134 0
-443 442 0
-443 132 0
-443 131 -134 0
-443 -131 134 0
443 -442 131 134 -132 0
443 -442 -131 -134 -132 0
445 442 -131 0
445 -442 131 0
-445 442 131 0
-445 -442 -131 0
444 134 -132 0
444 -134 132 0
-444 134 132 0
-444 -134 -132 0
-446 445 0
-446 130 0
-446 129 -132 0
-446 -129 132 0
446 -445 129 132 -130 0
446 -445 -129 -132 -130 0
448 445 -129 0
448 -445 129 0
-448 445 129 0
-448 -445 -129 0
447 132 -130 0
447 -132 130 0
-447 132 130 0
-447 -132 -130 0
-449 448 0
-449 128 0
-449 127 -130 0
-449 -127 130 0
449 -448 127 130 -128 0
449 -448 -127 -130 -128 0
451 448 -127 0
451 -448 127 0
-451 448 127 0
-451 -448 -127 0
450 130 -128 0
450 -130 128 0
-450 130 128 0
-450 -130 -128 0
-452 451 0
-452 126 0
-452 125 -128 0
-452 -125 128 0
452 -451 125 128 -126 0
452 -451 -125 -128 -126 0
454 451 -125 0
454 -451 125 0
-454 451 125 0
-454 -451 -125 0
453 128 -126 0
453 -128 126 0
-453 128 126 0
-453 -128 -126 0
-455 454 0
-455 124 0
-455 123 -126 0
-455 -123 126 0
455 -454 123 126 -124 0
455 -454 -123 -126 -124 0
457 454 -123 0
457 -454 123 0
-457 454 123 0
-457 -454 -123 0
456 126 -124 0
456 -126 124 0
-456 126 124 0
-456 -126 -124 0
-458 457 0
-458 122 0
-458 121 -124 0
-458 -121 124 0
458 -457 121 124 -122 0
458 -457 -121 -124 -122 0
460 457 -121 0
460 -457 121 0
-460 457 121 0
-460 -457 -121 0
459 124 -122 0
459 -124 122 0
-459 124 122 0
-459 -124 -122 0
-461 460 0
-461 120 0
-461 119 -122 0
-461 -119 122 0
461 -460 119 122 -120 0
461 -460 -119 -122 -120 0
463 460 -119 0
463 -460 119 0
-463 460 119 0
-463 -460 -119 0
462 122 -120 0
462 -122 120 0
-462 122 120 0
-462 -122 -120 0
-464 463 0
-464 118 0
-464 117 -120 0
-464 -117 120 0
464 -463 117 120 -118 0
464 -463 -117 -120 -118 0
466 463 -117 0
466 -463 117 0
-466 463 117 0
-466 -463 -117 0
465 120 -118 0
465 -120 118 0
-465 120 118 0
-465 -120 -118 0
-467 466 0
-467 116 0
-467 115 -118 0
-467 -115 118 0
467 -466 115 118 -116 0
467 -466 -115 -118 -116 0
469 466 -115 0
469 -466 115 0
-469 466 115 0
-469 -466 -115 0
468 118 -116 0
468 -118 116 0
-468 118 116 0
-468 -118 -116 0
-470 469 0
-470 114 0
-470 113 -116 0
-470 -113 116 0
470 -469 113 116 -114 0
470 -469 -113 -116 -114 0
472 469 -113 0
472 -469 113 0
-472 469 113 0
-472 -469 -113 0
471 116 -114 0
471 -116 114 0
-471 116 114 0
-471 -116 -114 0
-473 472 0
-473 112 0
-473 111 -114 0
-473 -111 114 0
473 -472 111 114 -112 0
473 -472 -111 -114 -112 0
475 472 -111 0
475 -472 111 0
-475 472 111 0
-475 -472 -111 0
474 114 -112 0
474 -114 112 0
-474 114 112 0
-474 -114 -112 0
-476 475 0
-476 110 0
-476 109 -112 0
-476 -109 112 0
476 -475 109 112 -110 0
476 -475 -109 -112 -110 0
478 475 -109 0
478 -475 109 0
-478 475 109 0
-478 -475 -109 0
477 112 -110 0
477 -112 110 0
-477 112 110 0
-477 -112 -110 0
-479 478 0
-479 108 0
-479 107 -110 0
-479 -107 110 0
479 -478 107 110 -108 0
479 -478 -107 -110 -108 0
481 478 -107 0
481 -478 107 0
-481 478 107 0
-481 -478 -107 0
480 110 -108 0
480 -110 108 0
-480 110 108 0
-480 -110 -108 0
-482 481 0
-482 106 0
-482 105 -108 0
-482 -105 108 0
482 -481 105 108 -106 0
482 -481 -105 -108 -106 0
484 481 -105 0
484 -481 105 0
-484 481 105 0
-484 -481 -105 0
483 108 -106 0
483 -108 106 0
-483 108 106 0
-483 -108 -106 0
-485 484 0
-485 104 0
-485 103 -106 0
-485 -103 106 0
485 -484 103 106 -104 0
485 -484 -103 -106 -104 0
487 484 -103 0
487 -484 103 0
-487 484 103 0
-487 -484 -103 0
486 106 -104 0
486 -106 104 0
-486 106 104 0
-486 -106 -104 0
-488 487 0
-488 102 0
-488 101 -104 0
-488 -101 104 0
488 -487 101 104 -102 0
488 -487 -101 -104 -102 0
490 487 -101 0
490 -487 101 0
-490 487 101 0
-490 -487 -101 0
489 104 -102 0
489 -104 102 0
-489 104 102 0
-489 -104 -102 0
-491 490 0
-491 100 0
-491 99 -102 0
-491 -99 102 0
491 -490 99 102 -100 0
491 -490 -99 -102 -100 0
493 490 -99 0
493 -490 99 0
-493 490 99 0
-493 -490 -99 0
492 102 -100 0
492 -102 100 0
-492 102 100 0
-492 -102 -100 0
-494 493 0
-494 98 0
-494 97 -100 0
-494 -97 100 0
494 -493 97 100 -98 0
494 -493 -97 -100 -98 0
496 493 -97 0
496 -493 97 0
-496 493 97 0
-496 -493 -97 0
495 100 -98 0
495 -100 98 0
-495 100 98 0
-495 -100 -98 0
-497 496 0
-497 96 0
-497 95 -98 0
-497 -95 98 0
497 -496 95 98 -96 0
497 -496 -95 -98 -96 0
499 496 -95 0
499 -496 95 0
-499 496 95 0
-499 -496 -95 0
498 98 -96 0
498 -98 96 0
-498 98 96 0
-498 -98 -96 0
-500 499 0
-500 94 0
-500 93 -96 0
-500 -93 96 0
500 -499 93 96 -94 0
500 -499 -93 -96 -94 0
502 499 -93 0
502 -499 93 0
-502 499 93 0
-502 -499 -93 0
501 96 -94 0
501 -96 94 0
-501 96 94 0
-501 -96 -94 0
-503 502 0
-503 92 0
-503 91 -94 0
-503 -91 94 0
503 -502 91 94 -92 0
503 -502 -91 -94 -92 0
505 502 -91 0
505 -502 91 0
-505 502 91 0
-505 -502 -91 0
504 94 -92 0
504 -94 92 0
-504 94 92 0
-504 -94 -92 0
-506 505 0
-506 90 0
-506 89 -92 0
-506 -89 92 0
506 -505 89 92 -90 0
506 -505 -89 -92 -90 0
508 505 -89 0
508 -505 89 0
-508 505 89 0
-508 -505 -89 0
507 92 -90 0
507 -92 90 0
-507 92 90 0
-507 -92 -90 0
-509 508 0
-509 88 0
-509 87 -90 0
-509 -87 90 0
509 -508 87 90 -88 0
509 -508 -87 -90 -88 0
511 508 -87 0
511 -508 87 0
-511 508 87 0
-511 -508 -87 0
510 90 -88 0
510 -90 88 0
-510 90 88 0
-510 -90 -88 0
-512 511 0
-512 86 0
-512 85 -88 0
-512 -85 88 0
512 -511 85 88 -86 0
512 -511 -85 -88 -86 0
514 511 -85 0
514 -511 85 0
-514 511 85 0
-514 -511 -85 0
513 88 -86 0
513 -88 86 0
-513 88 86 0
-513 -88 -86 0
-515 514 0
-515 84 0
-515 83 -86 0
-515 -83 86 0
515 -514 83 86 -84 0
515 -514 -83 -86 -84 0
517 514 -83 0
517 -514 83 0
-517 514 83 0
-517 -514 -83 0
516 86 -84 0
516 -86 84 0
-516 86 84 0
-516 -86 -84 0
-518 517 0
-518 82 0
-518 81 -84 0
-518 -81 84 0
518 -517 81 84 -82 0
518 -517 -81 -84 -82 0
520 517 -81 0
520 -517 81 0
-520 517 81 0
-520 -517 -81 0
519 84 -82 0
519 -84 82 0
-519 84 82 0
-519 -84 -82 0
-521 520 0
-521 80 0
-521 79 -82 0
-521 -79 82 0
521 -520 79 82 -80 0
521 -520 -79 -82 -80 0
523 520 -79 0
523 -520 79 0
-523 520 79 0
-523 -520 -79 0
522 82 -80 0
522 -82 80 0
-522 82 80 0
-522 -82 -80 0
-524 523 0
-524 78 0
-524 77 -80 0
-524 -77 80 0
524 -523 77 80 -78 0
524 -523 -77 -80 -78 0
526 523 -77 0
526 -523 77 0
-526 523 77 0
-526 -523 -77 0
525 80 -78 0
525 -80 78 0
-525 80 78 0
-525 -80 -78 0
-527 526 0
-527 76 0
-527 75 -78 0
-527 -75 78 0
527 -526 75 78 -76 0
527 -526 -75 -78 -76 0
529 526 -75 0
529 -526 75 0
-529 526 75 0
-529 -526 -75 0
528 78 -76 0
528 -78 76 0
-528 78 76 0
-528 -78 -76 0
-530 529 0
-530 74 0
-530 73 -76 0
-530 -73 76 0
530 -529 73 76 -74 0
530 -529 -73 -76 -74 0
532 529 -73 0
532 -529 73 0
-532 529 73 0
-532 -529 -73 0
531 76 -74 0
531 -76 74 0
-531 76 74 0
-531 -76 -74 0
-533 532 0
-533 72 0
-533 71 -74 0
-533 -71 74 0
533 -532 71 74 -72 0
533 -532 -71 -74 -72 0
535 532 -71 0
535 -532 71 0
-535 532 71 0
-535 -532 -71 0
534 74 -72 0
534 -74 72 0
-534 74 72 0
-534 -74 -72 0
-536 535 0
-536 70 0
-536 69 -72 0
-536 -69 72 0
536 -535 69 72 -70 0
536 -535 -69 -72 -70 0
538 535 -69 0
538 -535 69 0
-538 535 69 0
-538 -535 -69 0
537 72 -70 0
537 -72 70 0
-537 72 70 0
-537 -72 -70 0
-539 538 0
-539 68 0
-539 67 -70 0
-539 -67 70 0
539 -538 67 70 -68 0
539 -538 -67 -70 -68 0
541 538 -67 0
541 -538 67 0
-541 538 67 0
-541 -538 -67 0
540 70 -68 0
540 -70 68 0
-540 70 68 0
-540 -70 -68 0
-542 541 0
-542 66 0
-542 65 -68 0
-542 -65 68 0
542 -541 65 68 -66 0
542 -541 -65 -68 -66 0
544 541 -65 0
544 -541 65 0
-544 541 65 0
-544 -541 -65 0
543 68 -66 0
543 -68 66 0
-543 68 66 0
-543 -68 -66 0
-545 544 0
-545 64 0
-545 63 -66 0
-545 -63 66 0
545 -544 63 66 -64 0
545 -544 -63 -66 -64 0
547 544 -63 0
547 -544 63 0
-547 544 63 0
-547 -544 -63 0
546 66 -64 0
546 -66 64 0
-546 66 64 0
-546 -66 -64 0
-548 547 0
-548 62 0
-548 61 -64 0
-548 -61 64 0
548 -547 61 64 -62 0
548 -547 -61 -64 -62 0
550 547 -61 0
550 -547 61 0
-550 547 61 0
-550 -547 -61 0
549 64 -62 0
549 -64 62 0
-549 64 62 0
-549 -64 -62 0
-551 550 0
-551 60 0
-551 59 -62 0
-551 -59 62 0
551 -550 59 62 -60 0
551 -550 -59 -62 -60 0
553 550 -59 0
553 -550 59 0
-553 550 59 0
-553 -550 -59 0
552 62 -60 0
552 -62 60 0
-552 62 60 0
-552 -62 -60 0
-554 553 0
-554 58 0
-554 57 -60 0
-554 -57 60 0
554 -553 57 60 -58 0
554 -553 -57 -60 -58 0
556 553 -57 0
556 -553 57 0
-556 553 57 0
-556 -553 -57 0
555 60 -58 0
555 -60 58 0
-555 60 58 0
-555 -60 -58 0
-557 556 0
-557 56 0
-557 55 -58 0
-557 -55 58 0
557 -556 55 58 -56 0
557 -556 -55 -58 -56 0
559 556 -55 0
559 -556 55 0
-559 556 55 0
-559 -556 -55 0
558 58 -56 0
558 -58 56 0
-558 58 56 0
-558 -58 -56 0
-560 559 0
-560 54 0
-560 53 -56 0
-560 -53 56 0
560 -559 53 56 -54 0
560 -559 -53 -56 -54 0
562 559 -53 0
562 -559 53 0
-562 559 53 0
-562 -559 -53 0
561 56 -54 0
561 -56 54 0
-561 56 54 0
-561 -56 -54 0
-563 562 0
-563 52 0
-563 51 -54 0
-563 -51 54 0
563 -562 51 54 -52 0
563 -562 -51 -54 -52 0
565 562 -51 0
565 -562 51 0
-565 562 51 0
-565 -562 -51 0
564 54 -52 0
564 -54 52 0
-564 54 52 0
-564 -54 -52 0
-566 565 0
-566 50 0
-566 49 -52 0
-566 -49 52 0
566 -565 49 52 -50 0
566 -565 -49 -52 -50 0
568 565 -49 0
568 -565 49 0
-568 565 49 0
-568 -565 -49 0
567 52 -50 0
567 -52 50 0
-567 52 50 0
-567 -52 -50 0
-569 568 0
-569 48 0
-569 47 -50 0
-569 -47 50 0
569 -568 47 50 -48 0
569 -568 -47 -50 -48 0
571 568 -47 0
571 -568 47 0
-571 568 47 0
-571 -568 -47 0
570 50 -48 0
570 -50 48 0
-570 50 48 0
-570 -50 -48 0
-572 571 0
-572 46 0
-572 45 -48 0
-572 -45 48 0
572 -571 45 48 -46 0
572 -571 -45 -48 -46 0
574 571 -45 0
574 -571 45 0
-574 571 45 0
-574 -571 -45 0
573 48 -46 0
573 -48 46 0
-573 48 46 0
-573 -48 -46 0
-575 574 0
-575 44 0
-575 43 -46 0
-575 -43 46 0
575 -574 43 46 -44 0
575 -574 -43 -46 -44 0
577 574 -43 0
577 -574 43 0
-577 574 43 0
-577 -574 -43 0
576 46 -44 0
576 -46 44 0
-576 46 44 0
-576 -46 -44 0
-578 577 0
-578 42 0
-578 41 -44 0
-578 -41 44 0
578 -577 41 44 -42 0
578 -577 -41 -44 -42 0
580 577 -41 0
580 -577 41 0
-580 577 41 0
-580 -577 -41 0
579 44 -42 0
579 -44 42 0
-579 44 42 0
-579 -44 -42 0
-581 580 0
-581 40 0
-581 39 -42 0
-581 -39 42 0
581 -580 39 42 -40 0
581 -580 -39 -42 -40 0
583 580 -39 0
583 -580 39 0
-583 580 39 0
-583 -580 -39 0
582 42 -40 0
582 -42 40 0
-582 42 40 0
-582 -42 -40 0
-584 583 0
-584 38 0
-584 37 -40 0
-584 -37 40 0
584 -583 37 40 -38 0
584 -583 -37 -40 -38 0
586 583 -37 0
586 -583 37 0
-586 583 37 0
-586 -583 -37 0
585 40 -38 0
585 -40 38 0
-585 40 38 0
-585 -40 -38 0
-587 586 0
-587 36 0
-587 35 -38 0
-587 -35 38 0
587 -586 35 38 -36 0
587 -586 -35 -38 -36 0
589 586 -35 0
589 -586 35 0
-589 586 35 0
-589 -586 -35 0
588 38 -36 0
588 -38 36 0
-588 38 36 0
-588 -38 -36 0
-590 589 0
-590 34 0
-590 33 -36 0
-590 -33 36 0
590 -589 33 36 -34 0
590 -589 -33 -36 -34 0
592 589 -33 0
592 -589 33 0
-592 589 33 0
-592 -589 -33 0
591 36 -34 0
591 -36 34 0
-591 36 34 0
-591 -36 -34 0
-593 592 0
-593 32 0
-593 31 -34 0
-593 -31 34 0
593 -592 31 34 -32 0
593 -592 -31 -34 -32 0
595 592 -31 0
595 -592 31 0
-595 592 31 0
-595 -592 -31 0
594 34 -32 0
594 -34 32 0
-594 34 32 0
-594 -34 -32 0
-596 595 0
-596 30 0
-596 29 -32 0
-596 -29 32 0
596 -595 29 32 -30 0
596 -595 -29 -32 -30 0
598 595 -29 0
598 -595 29 0
-598 595 29 0
-598 -595 -29 0
597 32 -30 0
597 -32 30 0
-597 32 30 0
-597 -32 -30 0
-599 598 0
-599 28 0
-599 27 -30 0
-599 -27 30 0
599 -598 27 30 -28 0
599 -598 -27 -30 -28 0
601 598 -27 0
601 -598 27 0
-601 598 27 0
-601 -598 -27 0
600 30 -28 0
600 -30 28 0
-600 30 28 0
-600 -30 -28 0
-602 601 0
-602 26 0
-602 25 -28 0
-602 -25 28 0
602 -601 25 28 -26 0
602 -601 -25 -28 -26 0
604 601 -25 0
604 -601 25 0
-604 601 25 0
-604 -601 -25 0
603 28 -26 0
603 -28 26 0
-603 28 26 0
-603 -28 -26 0
-605 604 0
-605 24 0
-605 23 -26 0
-605 -23 26 0
605 -604 23 26 -24 0
605 -604 -23 -26 -24 0
607 604 -23 0
607 -604 23 0
-607 604 23 0
-607 -604 -23 0
606 26 -24 0
606 -26 24 0
-606 26 24 0
-606 -26 -24 0
-608 607 0
-608 22 0
-608 21 -24 0
-608 -21 24 0
608 -607 21 24 -22 0
608 -607 -21 -24 -22 0
610 607 -21 0
610 -607 21 0
-610 607 21 0
-610 -607 -21 0
609 24 -22 0
609 -24 22 0
-609 24 22 0
-609 -24 -22 0
-611 610 0
-611 20 0
-611 19 -22 0
-611 -19 22 0
611 -610 19 22 -20 0
611 -610 -19 -22 -20 0
613 610 -19 0
613 -610 19 0
-613 610 19 0
-613 -610 -19 0
612 22 -20 0
612 -22 20 0
-612 22 20 0
-612 -22 -20 0
-614 613 0
-614 18 0
-614 17 -20 0
-614 -17 20 0
614 -613 17 20 -18 0
614 -613 -17 -20 -18 0
616 613 -17 0
616 -613 17 0
-616 613 17 0
-616 -613 -17 0
615 20 -18 0
615 -20 18 0
-615 20 18 0
-615 -20 -18 0
-617 616 0
-617 16 0
-617 15 -18 0
-617 -15 18 0
617 -616 15 18 -16 0
617 -616 -15 -18 -16 0
619 616 -15 0
619 -616 15 0
-619 616 15 0
-619 -616 -15 0
618 18 -16 0
618 -18 16 0
-618 18 16 0
-618 -18 -16 0
-620 619 0
-620 14 0
-620 13 -16 0
-620 -13 16 0
620 -619 13 16 -14 0
620 -619 -13 -16 -14 0
622 619 -13 0
622 -619 13 0
-622 619 13 0
-622 -619 -13 0
621 16 -14 0
621 -16 14 0
-621 16 14 0
-621 -16 -14 0
-623 622 0
-623 12 0
-623 11 -14 0
-623 -11 14 0
623 -622 11 14 -12 0
623 -622 -11 -14 -12 0
625 622 -11 0
625 -622 11 0
-625 622 11 0
-625 -622 -11 0
624 14 -12 0
624 -14 12 0
-624 14 12 0
-624 -14 -12 0
-626 625 0
-626 10 0
-626 9 -12 0
-626 -9 12 0
626 -625 9 12 -10 0
626 -625 -9 -12 -10 0
628 625 -9 0
628 -625 9 0
-628 625 9 0
-628 -625 -9 0
627 12 -10 0
627 -12 10 0
-627 12 10 0
-627 -12 -10 0
-629 628 0
-629 8 0
-629 7 -10 0
-629 -7 10 0
629 -628 7 10 -8 0
629 -628 -7 -10 -8 0
631 628 -7 0
631 -628 7 0
-631 628 7 0
-631 -628 -7 0
630 10 -8 0
630 -10 8 0
-630 10 8 0
-630 -10 -8 0
-632 631 0
-632 6 0
-632 5 -8 0
-632 -5 8 0
632 -631 5 8 -6 0
632 -631 -5 -8 -6 0
634 631 -5 0
634 -631 5 0
-634 631 5 0
-634 -631 -5 0
633 8 -6 0
633 -8 6 0
-633 8 6 0
-633 -8 -6 0
-635 634 0
-635 4 0
-635 3 -6 0
-635 -3 6 0
635 -634 3 6 -4 0
635 -634 -3 -6 -4 0
637 634 -3 0
637 -634 3 0
-637 634 3 0
-637 -634 -3 0
636 6 -4 0
636 -6 4 0
-636 6 4 0
-636 -6 -4 0
-638 637 0
-638 2 0
-638 1 -4 0
-638 -1 4 0
638 -637 1 4 -2 0
638 -637 -1 -4 -2 0
640 637 -1 0
640 -637 1 0
-640 637 1 0
-640 -637 -1 0
639 4 -2 0
639 -4 2 0
-639 4 2 0
-639 -4 -2 0
-640 0
-637 0
-639 0
-634 0
-636 0
-631 0
-633 0
-628 0
-630 0
-625 0
-627 0
-622 0
-624 0
-619 0
-621 0
-616 0
-618 0
-613 0
-615 0
-610 0
-612 0
-607 0
-609 0
-604 0
-606 0
-601 0
-603 0
-598 0
-600 0
-595 0
-597 0
-592 0
-594 0
-589 0
-591 0
-586 0
-588 0
-583 0
-585 0
-580 0
-582 0
-577 0
-579 0
-574 0
-576 0
-571 0
-573 0
-568 0
-570 0
-565 0
-567 0
-562 0
-564 0
-559 0
-561 0
-556 0
-558 0
-553 0
-555 0
-550 0
-552 0
-547 0
-549 0
-544 0
-546 0
-541 0
-543 0
-538 0
-540 0
-535 0
-537 0
-532 0
-534 0
-529 0
-531 0
-526 0
-528 0
-523 0
-525 0
-520 0
-522 0
-517 0
-519 0
-514 0
-516 0
-511 0
-513 0
-508 0
-510 0
-505 0
-507 0
-502 0
-504 0
-499 0
-501 0
-496 0
-498 0
-493 0
-495 0
-490 0
-492 0
-487 0
-489 0
-484 0
-486 0
-481 0
-483 0
-478 0
-480 0
-475 0
-477 0
-472 0
-474 0
-469 0
-471 0
-466 0
-468 0
-463 0
-465 0
-460 0
-462 0
-457 0
-459 0
-454 0
-456 0
-451 0
-453 0
-448 0
-450 0
-445 0
-447 0
-442 0
-444 0
-439 0
-441 0
-436 0
-438 0
-433 0
-435 0
-430 0
-432 0
-427 0
-429 0
-424 0
-426 0
-421 0
-423 0
-418 0
-420 0
-415 0
-417 0
-412 0
-414 0
-409 0
-411 0
-406 0
-408 0
-403 0
-405 0
-400 0
-402 0
-397 0
-399 0
-394 0
-396 0
-391 0
-393 0
-388 0
-390 0
-385 0
-387 0
-382 0
-384 0
-379 0
-381 0
-376 0
-378 0
-373 0
-375 0
-370 0
-372 0
-367 0
-369 0
-364 0
-366 0
-361 0
-363 0
-358 0
-360 0
-355 0
-357 0
-352 0
-354 0
-349 0
-351 0
-346 0
-348 0
-343 0
-345 0
-340 0
-342 0
-337 0
-339 0
-334 0
-336 0
-331 0
-333 0
-328 0
-330 0
-325 0
-327 0
-322 0
-324 0
-319 0
-321 0
-316 0
-318 0
-313 0
-315 0
-310 0
-312 0
-307 0
-309 0
-304 0
-306 0
-301 0
-303 0
-298 0
-300 0
-295 0
-297 0
-292 0
-294 0
-289 0
-291 0
-286 0
-288 0
-283 0
-285 0
-280 0
-282 0
-277 0
-279 0
-274 0
-276 0
-271 0
-273 0
-268 0
-270 0
-265 0
-267 0
-258 0
-264 0
